30 1 3
996 622 617 308 648 476 123 784 293 796 246 327 784 396 952 778 553 386 842 807 322 987 138 516 74 992 281 386 158 246 
803 154 868 419 461 516 895 584 299 187 379 544 513 163 940 465 941 492 850 782 298 172 769 435 688 842 426 969 227 584 
214 29 737 82 448 198 597 342 782 895 529 161 439 41 323 379 505 264 870 355 46 168 527 814 603 214 655 28 182 881 
6120 3960 9100 3480 4770 3580 5460 740 7000 3270 9690 2280 4870 4080 2680 8100 7860 7730 740 6560 1280 1190 8230 6540 9320 4250 8670 5860 4530 490 
76210
